NAME : eil41-2
COMMENT : 41-city problem (Christofides/Eilon)
TYPE : CTSP
DIMENSION : 41
SALESMEN : 2
EDGE_WEIGHT_TYPE : EUC_2D
NODE_COORD_SECTION
1 42 41
2 5 25
3 17 63
4 20 26
5 17 33
6 12 42
7 5 64
8 7 38
9 21 47
10 8 52
11 16 57
12 61 33
13 52 64
14 56 37
15 58 27
16 62 42
17 57 58
18 49 49
19 58 48
20 52 41
21 62 63
22 37 69
23 31 62
24 32 39
25 25 55
26 52 33
27 27 23
28 48 28
29 42 57
30 51 31
31 30 48
32 30 40
33 27 68
34 37 52
35 43 67
36 31 32
37 32 22
38 38 46
39 40 30
40 25 32
41 45 35
CTSP_SET_SECTION
1 2 3 4 5 6 7 8 9 10 11 -1
2 12 13 14 15 16 17 18 19 20 21 -1
DEPOT_SECTION
1
-1
EOF
